Problem:    Segherie
Rows:       21
Columns:    80 (80 integer, 80 binary)
Non-zeros:  235
Status:     INTEGER OPTIMAL
Objective:  z = 1580.370864 (MINimum)

   No.   Row name        Activity     Lower bound   Upper bound
------ ------------    ------------- ------------- -------------
     1 Capacity[1]              -120                          -0 
     2 Capacity[2]              -182                          -0 
     3 Capacity[3]               -93                          -0 
     4 Capacity[4]               -14                          -0 
     5 Capacity[5]               -33                          -0 
     6 Assignment[1]
                                   1             1             = 
     7 Assignment[2]
                                   1             1             = 
     8 Assignment[3]
                                   1             1             = 
     9 Assignment[4]
                                   1             1             = 
    10 Assignment[5]
                                   1             1             = 
    11 Assignment[6]
                                   1             1             = 
    12 Assignment[7]
                                   1             1             = 
    13 Assignment[8]
                                   1             1             = 
    14 Assignment[9]
                                   1             1             = 
    15 Assignment[10]
                                   1             1             = 
    16 Assignment[11]
                                   1             1             = 
    17 Assignment[12]
                                   1             1             = 
    18 Assignment[13]
                                   1             1             = 
    19 Assignment[14]
                                   1             1             = 
    20 Assignment[15]
                                   1             1             = 
    21 z                     1580.37                             

   No. Column name       Activity     Lower bound   Upper bound
------ ------------    ------------- ------------- -------------
     1 y[1]         *              1             0             1 
     2 y[2]         *              1             0             1 
     3 y[3]         *              1             0             1 
     4 y[4]         *              1             0             1 
     5 y[5]         *              1             0             1 
     6 x[1,1]       *              0             0             1 
     7 x[2,1]       *              0             0             1 
     8 x[3,1]       *              0             0             1 
     9 x[4,1]       *              0             0             1 
    10 x[5,1]       *              0             0             1 
    11 x[6,1]       *              1             0             1 
    12 x[7,1]       *              0             0             1 
    13 x[8,1]       *              0             0             1 
    14 x[9,1]       *              0             0             1 
    15 x[10,1]      *              0             0             1 
    16 x[11,1]      *              0             0             1 
    17 x[12,1]      *              1             0             1 
    18 x[13,1]      *              0             0             1 
    19 x[14,1]      *              0             0             1 
    20 x[15,1]      *              0             0             1 
    21 x[1,2]       *              1             0             1 
    22 x[2,2]       *              0             0             1 
    23 x[3,2]       *              0             0             1 
    24 x[4,2]       *              0             0             1 
    25 x[5,2]       *              0             0             1 
    26 x[6,2]       *              0             0             1 
    27 x[7,2]       *              0             0             1 
    28 x[8,2]       *              0             0             1 
    29 x[9,2]       *              0             0             1 
    30 x[10,2]      *              0             0             1 
    31 x[11,2]      *              0             0             1 
    32 x[12,2]      *              0             0             1 
    33 x[13,2]      *              0             0             1 
    34 x[14,2]      *              0             0             1 
    35 x[15,2]      *              0             0             1 
    36 x[1,3]       *              0             0             1 
    37 x[2,3]       *              1             0             1 
    38 x[3,3]       *              0             0             1 
    39 x[4,3]       *              0             0             1 
    40 x[5,3]       *              0             0             1 
    41 x[6,3]       *              0             0             1 
    42 x[7,3]       *              0             0             1 
    43 x[8,3]       *              1             0             1 
    44 x[9,3]       *              0             0             1 
    45 x[10,3]      *              0             0             1 
    46 x[11,3]      *              1             0             1 
    47 x[12,3]      *              0             0             1 
    48 x[13,3]      *              0             0             1 
    49 x[14,3]      *              0             0             1 
    50 x[15,3]      *              0             0             1 
    51 x[1,4]       *              0             0             1 
    52 x[2,4]       *              0             0             1 
    53 x[3,4]       *              1             0             1 
    54 x[4,4]       *              0             0             1 
    55 x[5,4]       *              1             0             1 
    56 x[6,4]       *              0             0             1 
    57 x[7,4]       *              0             0             1 
    58 x[8,4]       *              0             0             1 
    59 x[9,4]       *              0             0             1 
    60 x[10,4]      *              1             0             1 
    61 x[11,4]      *              0             0             1 
    62 x[12,4]      *              0             0             1 
    63 x[13,4]      *              1             0             1 
    64 x[14,4]      *              0             0             1 
    65 x[15,4]      *              1             0             1 
    66 x[1,5]       *              0             0             1 
    67 x[2,5]       *              0             0             1 
    68 x[3,5]       *              0             0             1 
    69 x[4,5]       *              1             0             1 
    70 x[5,5]       *              0             0             1 
    71 x[6,5]       *              0             0             1 
    72 x[7,5]       *              1             0             1 
    73 x[8,5]       *              0             0             1 
    74 x[9,5]       *              1             0             1 
    75 x[10,5]      *              0             0             1 
    76 x[11,5]      *              0             0             1 
    77 x[12,5]      *              0             0             1 
    78 x[13,5]      *              0             0             1 
    79 x[14,5]      *              1             0             1 
    80 x[15,5]      *              0             0             1 

Integer feasibility conditions:

KKT.PE: max.abs.err = 0.00e+000 on row 0
        max.rel.err = 0.00e+000 on row 0
        High quality

KKT.PB: max.abs.err = 0.00e+000 on row 0
        max.rel.err = 0.00e+000 on row 0
        High quality

End of output
